15433
101001011001001001011000110001
20 11 20 17 19 5 2 24 19 17 29 14 14 20 19 2 14 17 29 11 7 17 29 2 29 8 19 11 5 5 5 11 14 11 20 20 24 24 19 14 0 8 24 14 24 14 29 8 11 8 29 2 14 0 20 20 17 11 17 14 0 5 8 0 11 11 5 0 29 24 8 20 11 17 24 8 29 20 14 5 20 0 8 17 19 17 2 0 20 29 0 24 17 2 17 5 2 7 29 8 2 19 17 25 2 29 7 11 14 8 14 19 2 11 11 29 24 24 5 24 5 14 25 20 8 0 11 11 7 0 0 7 24 5 8 14 25 5 20 17 0 8 20 17 8 25 25 5 2 5 